num_occupants = 17;
num_patients = 96;
horizon = 14;
num_rooms = 12;
oc_length_of_stay = [1, 1, 3, 2, 5, 1, 1, 1, 1, 4, 1, 1, 4, 2, 2, 9, 2];
oc_gender = [2, 1, 1, 1, 2, 2, 2, 2, 1, 1, 1, 1, 1, 2, 1, 2, 1];
oc_room = [11, 9, 4, 9, 3, 7, 3, 7, 2, 12, 4, 5, 10, 3, 5, 6, 2];
length_of_stay = length_of_stay = [4, 9, 2, 2, 4, 5, 5, 2, 4, 4, 5, 4, 12, 7, 7, 4, 6, 4, 3, 4, 6, 2, 6, 8, 4, 3, 4... ]; // array too long to display, dimensions: (96)

gender = gender = [1, 2, 1, 2, 2, 1, 1, 2, 2, 1, 2, 2, 2, 1, 2, 1, 1, 2, 1, 1, 1, 2, 1, 1, 2, 1, 2,... ]; // array too long to display, dimensions: (96)

max_incompatible = 4;
incompatible_rooms = incompatible_rooms = incompatible_rooms = incompatible_rooms = [|3, 0, 0, 0 | 3, 12, 0, 0 | 0, 0, 0, 0 | 7, 8, 0, 0 | 0, 0, 0, 0 | 9, 0, 0, 0 | ... ]; // array too long to display, dimensions: (30)
 // array too long to display, dimensions: (289)

mandatory = mandatory = [false, false, true, false, false, false, true, fal... ]; // array too long to display, dimensions: (96)

surgery_duration = surgery_duration = [240, 180, 120, 60, 180, 90, 120, 90, 240, 60, 240, 60, 240, 60, 120, 60, 120, 12... ]; // array too long to display, dimensions: (96)

surgeon = surgeon = [1, 2, 4, 1, 3, 3, 4, 2, 3, 1, 3, 2, 1, 3, 1, 2, 3, 1, 2, 2, 4, 1, 4, 2, 3, 2, 1,... ]; // array too long to display, dimensions: (96)

num_surgeons = 4;
max_surgery = array2d(1..4, 0..13, max_surgery = [|0, 480, 0, 480, 480, 360, 600, 480, 480, 480, 0, 480, 0, 480 | 0, 600, 480, 480... ] // array too long to display, dimensions: (53)
);
release_day = release_day = [4, 4, 2, 4, 0, 6, 2, 2, 8, 1, 3, 2, 1, 0, 5, 6, 2, 1, 1, 4, 1, 1, 1, 1, 7, 3, 4,... ]; // array too long to display, dimensions: (96)

due_day = due_day = [14, 14, 13, 14, 14, 14, 13, 14, 14, 14, 14, 14, 14, 14, 14, 14, 14, 14, 14, 14, ... ]; // array too long to display, dimensions: (96)

capacity = [4, 4, 3, 4, 2, 2, 2, 2, 2, 3, 2, 4];
num_ot = 3;
max_ot = array2d(1..3, 0..13, max_ot = [|0, 600, 720, 720, 600, 0, 0, 600, 720, 720, 720, 720, 0, 720 | 600, 600, 600, 6... ] // array too long to display, dimensions: (40)
);
weight_selection = 500;
weight_delay = 15;
